c ren 1 -> 1
c ren 2 -> 2
c ren 3 -> 3
c ren 5 -> 4
c ren 7 -> 5
c ren 8 -> 6
c ren 9 -> 7
c ren 10 -> 8
c ren 11 -> 9
c ren 14 -> 10
c ren 15 -> 11
c ren 19 -> 12
c ren 20 -> 13
c ren 21 -> 14
c ren 25 -> 15
c ren 30 -> 16
c ren 31 -> 17
c ren 32 -> 18
c ren 35 -> 19
c ren 36 -> 20
c ren 38 -> 21
c ren 41 -> 22
c ren 50 -> 23
c ren 55 -> 24
c ren 60 -> 25
c ren 61 -> 26
c ren 62 -> 27
c ren 65 -> 28
c ren 66 -> 29
c ren 68 -> 30
c ren 71 -> 31
c ren 73 -> 32
c ren 76 -> 33
c ren 77 -> 34
c ren 79 -> 35
c ren 82 -> 36
c ren 84 -> 37
c ren 87 -> 38
c ren 91 -> 39
c ren 94 -> 40
c ren 96 -> 41
c ren 99 -> 42
c ren 101 -> 43
c ren 104 -> 44
c ren 108 -> 45
c ren 111 -> 46
c ren 113 -> 47
c ren 116 -> 48
c ren 118 -> 49
c ren 121 -> 50
c ren 126 -> 51
c ren 131 -> 52
c ren 135 -> 53
c ren 136 -> 54
c ren 138 -> 55
c ren 141 -> 56
c ren 145 -> 57
c ren 148 -> 58
c ren 150 -> 59
c ren 153 -> 60
c ren 155 -> 61
c ren 158 -> 62
c ren 162 -> 63
c ren 165 -> 64
c ren 167 -> 65
c ren 170 -> 66
c ren 172 -> 67
c ren 175 -> 68
c ren 179 -> 69
c ren 182 -> 70
c ren 184 -> 71
c ren 187 -> 72
c ren 189 -> 73
c ren 192 -> 74
c ren 196 -> 75
c ren 199 -> 76
c ren 201 -> 77
c ren 204 -> 78
c ren 208 -> 79
c ren 211 -> 80
c ren 213 -> 81
c ren 216 -> 82
c ren 218 -> 83
c ren 221 -> 84
c ren 225 -> 85
c ren 228 -> 86
c ren 230 -> 87
c ren 233 -> 88
c ren 237 -> 89
c ren 240 -> 90
c ren 242 -> 91
c ren 245 -> 92
c ren 249 -> 93
c ren 252 -> 94
c ren 253 -> 95
c ren 257 -> 96
c ren 261 -> 97
c ren 265 -> 98
c ren 269 -> 99
c ren 272 -> 100
c ren 273 -> 101
c ren 274 -> 102
c ren 276 -> 103
c ren 279 -> 104
c ren 280 -> 105
c ren 287 -> 106
c ren 292 -> 107
c ren 297 -> 108
c ren 300 -> 109
c ren 301 -> 110
c ren 302 -> 111
c ren 305 -> 112
c ren 306 -> 113
c ren 309 -> 114
c ren 310 -> 115
c ren 313 -> 116
c ren 315 -> 117
c ren 318 -> 118
c ren 322 -> 119
c ren 325 -> 120
c ren 327 -> 121
c ren 330 -> 122
c ren 332 -> 123
c ren 335 -> 124
c ren 340 -> 125
c ren 342 -> 126
c ren 345 -> 127
c ren 346 -> 128
c ren 348 -> 129
c ren 351 -> 130
c ren 353 -> 131
c ren 356 -> 132
c ren 357 -> 133
c ren 360 -> 134
c ren 361 -> 135
c ren 364 -> 136
c ren 369 -> 137
c ren 375 -> 138
c ren 376 -> 139
c ren 378 -> 140
c ren 381 -> 141
c ren 383 -> 142
c ren 386 -> 143
c ren 387 -> 144
c ren 390 -> 145
c ren 391 -> 146
c ren 394 -> 147
c ren 396 -> 148
c ren 398 -> 149
c ren 401 -> 150
c ren 403 -> 151
c ren 406 -> 152
c ren 407 -> 153
c ren 409 -> 154
c ren 412 -> 155
c ren 413 -> 156
c ren 416 -> 157
c ren 421 -> 158
c ren 424 -> 159
c ren 425 -> 160
c ren 428 -> 161
c ren 429 -> 162
c ren 432 -> 163
c ren 433 -> 164
c ren 436 -> 165
c ren 440 -> 166
c ren 443 -> 167
c ren 448 -> 168
c ren 454 -> 169
c ren 455 -> 170
c ren 457 -> 171
c ren 460 -> 172
c ren 462 -> 173
c ren 465 -> 174
c ren 469 -> 175
c ren 472 -> 176
c ren 473 -> 177
c ren 476 -> 178
c ren 480 -> 179
c ren 483 -> 180
c ren 485 -> 181
c ren 488 -> 182
c ren 492 -> 183
c ren 509 -> 184
p cnf 184 797
a 1 2 3 5 6 7 10 12 13 15 16 17 20 22 23 24 25 26 29 31 33 34 36 38 40 42 44 46 48 50 51 52 54 56 58 60 62 64 66 68 70 72 74 76 78 80 82 84 86 88 90 92 94 96 97 98 99 101 104 106 107 108 110 112 114 116 118 120 122 124 125 127 130 132 134 136 137 139 141 143 145 147 150 152 155 157 159 161 163 165 167 168 170 172 174 176 178 180 182 0
d 95 2 3 0
d 102 3 6 0
d 105 94 97 0
d 128 124 125 0
d 148 143 145 0
d 153 6 26 0
d 184 155 159 0
e 4 8 9 11 14 18 19 21 27 28 30 32 35 37 39 41 43 45 47 49 53 55 57 59 61 63 65 67 69 71 73 75 77 79 81 83 85 87 89 91 93 100 103 109 111 113 115 117 119 121 123 126 129 131 133 135 138 140 142 144 146 149 151 154 156 158 160 162 164 166 169 171 173 175 177 179 181 183 0
-1 2 -4 0
-1 -2 -3 4 0
1 -2 -3 -4 0
1 3 4 0
-1 3 -4 0
1 2 4 0
6 -8 0
7 -8 0
-6 -7 8 0
-5 -8 9 0
5 8 9 0
-5 8 -9 0
5 -8 -9 0
9 19 0
-3 -4 -6 -9 -11 -14 -18 0
-1 5 11 0
1 -5 11 0
-1 -5 -11 0
1 5 -11 0
3 -4 -9 -10 -11 -12 -14 15 16 18 -19 0
-3 -4 -6 -9 -10 -11 -12 -14 -15 16 -19 0
-4 6 -9 10 11 -12 -14 15 16 18 -19 0
-4 6 -9 -10 -11 -12 -14 15 -16 -18 -19 0
3 -4 -9 -10 -11 -12 -14 15 -16 -18 -19 0
-4 6 -9 -10 -11 -12 -14 15 16 18 -19 0
-3 -4 -6 -9 10 11 12 14 -15 16 18 -19 0
2 -14 0
13 -14 0
-2 -13 14 0
3 -4 -9 -10 -11 12 14 15 -16 -18 -19 0
-3 -4 -6 -9 -10 -11 12 -15 -16 -18 -19 0
-4 6 -9 10 11 -12 -14 15 -16 -18 -19 0
3 -4 -9 -10 -11 12 14 15 16 18 -19 0
-3 -4 -6 -9 -10 -11 12 14 -15 16 18 -19 0
-4 6 -9 -10 -11 12 14 15 -16 -18 -19 0
-12 14 19 0
3 -4 -9 10 11 -12 -14 15 -16 -18 -19 0
-4 6 -9 -10 -11 12 14 15 16 18 -19 0
6 -15 19 0
3 -15 19 0
-3 -4 -9 10 11 -12 -14 -15 -16 -18 -19 0
12 -14 19 0
3 -4 -9 10 11 -12 -14 15 16 18 -19 0
-3 -6 15 19 0
-4 -6 -9 10 11 12 14 -15 -16 -18 -19 0
3 -4 -9 10 11 12 14 15 16 18 -19 0
17 -18 0
7 -18 0
-7 -17 18 0
-16 18 19 0
-3 -4 -6 -9 10 11 -12 -14 -15 16 18 -19 0
-4 6 -9 10 11 12 14 15 16 18 -19 0
16 -18 19 0
3 -4 -9 10 11 12 14 15 -16 -18 -19 0
-4 6 -9 10 11 12 14 15 -16 -18 -19 0
15 16 -20 -21 0
-15 -16 20 21 0
15 -16 20 -21 0
-15 16 -20 21 0
-15 16 20 -21 0
-15 -16 -20 -21 0
15 16 20 21 0
15 -16 -20 21 0
21 28 0
-1 -5 12 19 20 -21 -22 -23 -24 -25 -27 -28 0
-10 11 19 0
1 -12 19 -20 -21 22 -23 24 -25 -27 -28 0
1 -12 19 -20 -21 22 -23 24 25 27 -28 0
1 -12 19 20 -21 22 23 -24 -25 -27 -28 0
-1 -5 12 19 20 -21 -22 -23 -24 25 27 -28 0
5 -12 19 20 -21 22 23 -24 25 27 -28 0
1 -12 19 20 -21 22 23 -24 25 27 -28 0
-1 -5 -12 19 -20 -21 -22 23 -24 -25 -27 -28 0
-1 -5 12 19 -20 -21 -22 23 24 25 27 -28 0
1 12 19 -20 -21 22 -23 -24 -25 -27 -28 0
-1 -5 22 28 0
1 -22 28 0
5 12 19 -20 -21 22 -23 -24 -25 -27 -28 0
1 12 19 20 -21 22 23 24 -25 -27 -28 0
1 12 19 -20 -21 22 -23 -24 25 27 -28 0
-1 -5 -12 19 -20 -21 -22 23 -24 25 27 -28 0
-20 22 23 28 0
-1 -5 -12 19 20 -21 -22 -23 24 -25 -27 -28 0
5 12 19 -20 -21 22 -23 -24 25 27 -28 0
4 19 0
-1 -5 -12 19 20 -21 -22 -23 24 25 27 -28 0
12 -23 24 28 0
5 -12 19 20 -21 22 23 -24 -25 -27 -28 0
20 -22 23 28 0
1 12 19 20 -21 22 23 24 25 27 -28 0
5 -12 19 -20 -21 22 -23 24 -25 -27 -28 0
-20 -22 -23 28 0
-12 23 24 28 0
-12 -23 -24 28 0
20 22 -23 28 0
2 -27 0
26 -27 0
-2 -26 27 0
-25 27 28 0
5 -12 19 -20 -21 22 -23 24 25 27 -28 0
25 -27 28 0
12 23 -24 28 0
-1 -5 12 19 -20 -21 -22 23 24 -25 -27 -28 0
6 -29 -30 0
-6 -13 -29 30 0
13 110 111 0
-6 -13 29 -30 0
6 110 111 0
6 -110 -111 0
-6 -13 -110 111 0
30 53 0
-3 -6 -13 -17 -26 28 -30 -32 -34 -35 -37 -39 -41 -43 -45 -47 -49 -50 -51 -52 -53 0
5 12 19 20 -21 22 23 24 25 27 -28 0
3 -31 -32 0
-3 -17 -31 32 0
17 112 113 0
-3 -17 31 -32 0
3 112 113 0
3 -112 -113 0
-3 -17 -112 113 0
32 53 0
3 -6 -13 -17 -26 28 -30 -32 -35 -37 -39 -41 -43 -45 -47 -49 -50 -51 52 -53 0
7 -33 -35 0
-7 -33 -34 35 0
34 114 115 0
-7 33 -34 -35 0
7 114 115 0
7 -114 -115 0
-7 -34 -114 115 0
35 53 0
-6 -13 -17 -26 28 -30 -32 34 -35 -37 -39 -41 -43 -45 -47 -49 -50 -51 52 -53 0
5 -22 28 0
31 33 -36 -37 0
-31 -33 36 37 0
31 -33 36 -37 0
-31 33 -36 37 0
-31 33 36 -37 0
-31 -33 -36 -37 0
31 33 36 37 0
31 -33 -36 37 0
37 53 0
-3 -6 13 -26 28 -30 -32 -34 -35 -37 -39 -41 -43 -45 -47 -49 -50 51 -52 -53 0
15 20 -38 -39 0
-20 -22 -38 39 0
16 22 38 39 0
16 20 -38 -39 0
-15 -16 -38 39 0
16 22 -38 -39 0
15 20 38 39 0
15 22 38 39 0
-15 -16 38 -39 0
15 22 -38 -39 0
-20 -22 38 -39 0
16 20 38 39 0
39 53 0
3 -6 13 -26 28 -30 -32 -35 -37 -39 -41 -43 -45 -47 -49 -50 51 52 -53 0
36 38 -40 -41 0
-36 -38 40 41 0
36 -38 40 -41 0
-36 38 -40 41 0
-36 38 40 -41 0
-36 -38 -40 -41 0
36 38 40 41 0
36 -38 -40 41 0
41 53 0
-6 13 -26 28 -30 -32 34 -35 -37 -39 -41 -43 -45 -47 -49 -50 51 52 -53 0
29 40 -42 -43 0
-29 -40 42 43 0
29 -40 42 -43 0
-29 40 -42 43 0
-29 40 42 -43 0
-29 -40 -42 -43 0
29 40 42 43 0
29 -40 -42 43 0
43 53 0
-3 -6 17 -26 28 -30 -32 -34 -35 -37 -39 -41 -43 -45 -47 -49 -50 51 -52 -53 0
12 -44 -45 0
23 -44 -45 0
-12 -23 -44 45 0
12 44 45 0
-12 -23 44 -45 0
23 44 45 0
45 53 0
3 -6 17 -26 28 -30 -32 -35 -37 -39 -41 -43 -45 -47 -49 -50 51 52 -53 0
42 44 -46 -47 0
-42 -44 46 47 0
42 -44 46 -47 0
-42 44 -46 47 0
-42 44 46 -47 0
-42 -44 -46 -47 0
42 44 46 47 0
42 -44 -46 47 0
47 53 0
-6 17 -26 28 -30 -32 34 -35 -37 -39 -41 -43 -45 -47 -49 -50 51 52 -53 0
5 12 19 20 -21 22 23 24 -25 -27 -28 0
25 46 -48 -49 0
-25 -46 48 49 0
25 -46 48 -49 0
-25 46 -48 49 0
-25 46 48 -49 0
-25 -46 -48 -49 0
25 46 48 49 0
25 -46 -48 49 0
49 53 0
-3 6 -13 -17 28 -30 -32 -34 -35 -37 -39 -41 -43 -45 -47 -49 50 -51 -52 -53 0
-19 28 0
-13 -17 26 28 -30 -32 34 -35 -37 -39 -41 -43 -45 -47 -49 50 -51 52 -53 0
3 6 -13 -17 28 -30 -32 -35 -37 -39 -41 -43 -45 -47 -49 50 -51 52 -53 0
34 -114 -115 0
3 6 13 28 -30 -32 -35 -37 -39 -41 -43 -45 -47 -49 50 51 52 -53 0
6 -13 -17 28 -30 -32 34 -35 -37 -39 -41 -43 -45 -47 -49 50 -51 52 -53 0
3 17 26 28 -30 -32 -35 -37 -39 -41 -43 -45 -47 -49 50 51 52 -53 0
6 13 28 -30 -32 34 -35 -37 -39 -41 -43 -45 -47 -49 50 51 52 -53 0
-3 6 13 28 -30 -32 -34 -35 -37 -39 -41 -43 -45 -47 -49 50 51 -52 -53 0
-3 6 17 28 -30 -32 -34 -35 -37 -39 -41 -43 -45 -47 -49 50 51 -52 -53 0
-28 53 0
13 -132 -133 0
-13 -17 -132 133 0
13 26 28 -30 -32 34 -35 -37 -39 -41 -43 -45 -47 -49 50 51 52 -53 0
-13 -17 51 53 0
6 17 28 -30 -32 34 -35 -37 -39 -41 -43 -45 -47 -49 50 51 52 -53 0
13 132 133 0
3 13 26 28 -30 -32 -35 -37 -39 -41 -43 -45 -47 -49 50 51 52 -53 0
-3 -13 -17 26 28 -30 -32 -34 -35 -37 -39 -41 -43 -45 -47 -49 50 -51 -52 -53 0
13 -51 53 0
3 -134 -135 0
-3 -34 -134 135 0
17 26 28 -30 -32 34 -35 -37 -39 -41 -43 -45 -47 -49 50 51 52 -53 0
34 -134 -135 0
-3 -34 52 53 0
17 -51 53 0
3 134 135 0
-3 17 26 28 -30 -32 -34 -35 -37 -39 -41 -43 -45 -47 -49 50 51 -52 -53 0
34 134 135 0
34 -52 53 0
52 -54 -55 0
-52 -54 55 0
-52 54 -55 0
52 54 55 0
55 100 0
-8 -14 -18 53 -55 -57 -59 -61 -63 -65 -67 -69 -71 -73 -75 -77 -79 -81 -83 -85 -87 -89 -91 -93 -94 -95 -96 -97 -98 -99 -100 0
13 -110 -111 0
31 36 -56 -57 0
-36 -38 -56 57 0
33 38 56 57 0
33 36 -56 -57 0
-31 -33 -56 57 0
33 38 -56 -57 0
31 36 56 57 0
31 38 56 57 0
17 -112 -113 0
-31 -33 56 -57 0
31 38 -56 -57 0
-36 -38 56 -57 0
33 36 56 57 0
57 100 0
-8 -14 18 53 -55 -57 -59 -61 -63 -65 -67 -69 -71 -73 -75 -77 -79 -81 -83 -85 -87 -89 -91 -93 -94 -95 -96 -97 -98 99 -100 0
54 56 -58 -59 0
-54 -56 58 59 0
54 -56 58 -59 0
-54 56 -58 59 0
-54 56 58 -59 0
-54 -56 -58 -59 0
54 56 58 59 0
54 -56 -58 59 0
59 100 0
-8 14 -18 53 -55 -57 -59 -61 -63 -65 -67 -69 -71 -73 -75 -77 -79 -81 -83 -85 -87 -89 -91 -93 -94 -95 -96 -97 98 -99 -100 0
51 58 -60 -61 0
-51 -58 60 61 0
51 -58 60 -61 0
-51 58 -60 61 0
-51 58 60 -61 0
-51 -58 -60 -61 0
51 58 60 61 0
51 -58 -60 61 0
61 100 0
-8 14 18 53 -55 -57 -59 -61 -63 -65 -67 -69 -71 -73 -75 -77 -79 -81 -83 -85 -87 -89 -91 -93 -94 -95 -96 -97 98 99 -100 0
29 42 -62 -63 0
-42 -44 -62 63 0
40 44 62 63 0
40 42 -62 -63 0
-29 -40 -62 63 0
40 44 -62 -63 0
29 42 62 63 0
29 44 62 63 0
-29 -40 62 -63 0
29 44 -62 -63 0
-42 -44 62 -63 0
40 42 62 63 0
63 100 0
8 -14 -18 53 -55 -57 -59 -61 -63 -65 -67 -69 -71 -73 -75 -77 -79 -81 -83 -85 -87 -89 -91 -93 -94 -95 96 97 -98 -99 -100 0
60 62 -64 -65 0
-60 -62 64 65 0
60 -62 64 -65 0
-60 62 -64 65 0
-60 62 64 -65 0
-60 -62 -64 -65 0
60 62 64 65 0
60 -62 -64 65 0
65 100 0
8 -14 18 53 -55 -57 -59 -61 -63 -65 -67 -69 -71 -73 -75 -77 -79 -81 -83 -85 -87 -89 -91 -93 -94 -95 96 97 -98 99 -100 0
50 64 -66 -67 0
-50 -64 66 67 0
50 -64 66 -67 0
-50 64 -66 67 0
-50 64 66 -67 0
-50 -64 -66 -67 0
50 64 66 67 0
50 -64 -66 67 0
67 100 0
8 14 -18 53 -55 -57 -59 -61 -63 -65 -67 -69 -71 -73 -75 -77 -79 -81 -83 -85 -87 -89 -91 -93 -94 -95 96 97 98 -99 -100 0
25 -68 -69 0
46 68 69 0
46 -68 -69 0
-25 -46 -68 69 0
25 68 69 0
-25 -46 68 -69 0
69 100 0
8 14 18 53 -55 -57 -59 -61 -63 -65 -67 -69 -71 -73 -75 -77 -79 -81 -83 -85 -87 -89 -91 -93 -94 -95 96 97 98 99 -100 0
17 -70 -71 0
-17 -26 -70 71 0
26 161 162 0
-17 -26 70 -71 0
17 161 162 0
17 -161 -162 0
-17 -26 -161 162 0
71 100 0
-8 -14 -18 53 -55 -57 -59 -61 -63 -65 -67 -69 -71 -73 -75 -77 -79 -81 -83 -85 -87 -89 -91 -93 94 95 -96 -97 -98 -99 -100 0
13 -72 -73 0
-13 -34 -72 73 0
34 163 164 0
-13 -34 72 -73 0
13 163 164 0
13 -163 -164 0
-13 -34 -163 164 0
73 100 0
-8 -14 18 53 -55 -57 -59 -61 -63 -65 -67 -69 -71 -73 -75 -77 -79 -81 -83 -85 -87 -89 -91 -93 94 95 -96 -97 -98 99 -100 0
54 -74 -75 0
-54 -56 -74 75 0
56 74 75 0
56 -74 -75 0
-54 -56 74 -75 0
52 54 74 75 0
75 100 0
-8 14 -18 53 -55 -57 -59 -61 -63 -65 -67 -69 -71 -73 -75 -77 -79 -81 -83 -85 -87 -89 -91 -93 94 95 -96 -97 98 -99 -100 0
72 74 -76 -77 0
-72 -74 76 77 0
72 -74 76 -77 0
-72 74 -76 77 0
-72 74 76 -77 0
-72 -74 -76 -77 0
72 74 76 77 0
72 -74 -76 77 0
77 100 0
-8 14 18 53 -55 -57 -59 -61 -63 -65 -67 -69 -71 -73 -75 -77 -79 -81 -83 -85 -87 -89 -91 -93 94 95 -96 -97 98 99 -100 0
51 60 -78 -79 0
-60 -62 -78 79 0
58 62 78 79 0
58 60 -78 -79 0
-51 -58 -78 79 0
58 62 -78 -79 0
51 62 78 79 0
-51 -58 78 -79 0
51 62 -78 -79 0
-60 -62 78 -79 0
58 60 78 79 0
79 100 0
8 -14 -18 53 -55 -57 -59 -61 -63 -65 -67 -69 -71 -73 -75 -77 -79 -81 -83 -85 -87 -89 -91 -93 94 95 96 97 -98 -99 -100 0
76 78 -80 -81 0
-76 -78 80 81 0
76 -78 80 -81 0
-76 78 -80 81 0
-76 78 80 -81 0
-76 -78 -80 -81 0
76 78 80 81 0
76 -78 -80 81 0
81 100 0
8 -14 18 53 -55 -57 -59 -61 -63 -65 -67 -69 -71 -73 -75 -77 -79 -81 -83 -85 -87 -89 -91 -93 94 95 96 97 -98 99 -100 0
70 80 -82 -83 0
-70 -80 82 83 0
70 -80 82 -83 0
-70 80 -82 83 0
-70 80 82 -83 0
-70 -80 -82 -83 0
70 80 82 83 0
70 -80 -82 83 0
83 100 0
8 14 -18 53 -55 -57 -59 -61 -63 -65 -67 -69 -71 -73 -75 -77 -79 -81 -83 -85 -87 -89 -91 -93 94 95 96 97 98 -99 -100 0
50 66 -84 -85 0
-66 -68 -84 85 0
64 68 84 85 0
64 66 -84 -85 0
-50 -64 -84 85 0
64 68 -84 -85 0
50 66 84 85 0
50 68 84 85 0
-50 -64 84 -85 0
50 68 -84 -85 0
-66 -68 84 -85 0
85 100 0
8 14 18 53 -55 -57 -59 -61 -63 -65 -67 -69 -71 -73 -75 -77 -79 -81 -83 -85 -87 -89 -91 -93 94 95 96 97 98 99 -100 0
26 -86 -87 0
-26 -34 -86 87 0
34 176 177 0
-26 -34 86 -87 0
26 176 177 0
-26 -34 -176 177 0
87 100 0
-53 100 0
72 76 -88 -89 0
-76 -78 -88 89 0
74 78 88 89 0
74 76 -88 -89 0
-72 -74 -88 89 0
74 78 -88 -89 0
72 78 88 89 0
-72 -74 88 -89 0
72 78 -88 -89 0
-76 -78 88 -89 0
74 76 88 89 0
89 100 0
6 -50 53 0
86 88 -90 -91 0
-86 -88 90 91 0
86 -88 90 -91 0
-86 88 -90 91 0
-86 88 90 -91 0
-86 -88 -90 -91 0
86 88 90 91 0
86 -88 -90 91 0
91 100 0
3 -13 -17 26 28 -30 -32 -35 -37 -39 -41 -43 -45 -47 -49 50 -51 52 -53 0
70 82 -92 -93 0
-82 -84 -92 93 0
80 84 92 93 0
80 82 -92 -93 0
-70 -80 -92 93 0
80 84 -92 -93 0
70 84 92 93 0
-70 -80 92 -93 0
70 84 -92 -93 0
-82 -84 92 -93 0
80 82 92 93 0
93 100 0
10 -11 19 0
26 -50 53 0
26 -161 -162 0
94 -95 100 0
34 -163 -164 0
96 -97 100 0
8 -96 100 0
-8 96 100 0
-94 95 100 0
14 -98 100 0
18 -99 100 0
-14 98 100 0
-18 99 100 0
-96 97 100 0
99 -101 102 -103 0
-99 101 -102 103 0
-99 101 102 -103 0
99 -101 -102 103 0
99 101 -102 -103 0
-99 -101 -102 -103 0
99 101 102 103 0
-99 -101 102 103 0
103 109 0
-27 -95 -96 98 100 101 -103 -104 -106 -107 -108 -109 0
-27 95 -98 100 -101 -103 104 -106 107 -108 -109 0
-27 95 -98 100 101 -103 104 106 -107 -108 -109 0
27 -95 -96 98 100 101 -103 -104 -106 -107 108 -109 0
27 96 -98 100 101 -103 104 106 -107 108 -109 0
27 95 -98 100 101 -103 104 106 -107 108 -109 0
-27 -95 -96 -98 100 -101 -103 -104 106 -107 -108 -109 0
27 -95 -96 98 100 -101 -103 -104 106 107 108 -109 0
-27 95 98 100 -101 -103 104 -106 -107 -108 -109 0
-95 -96 104 109 0
95 -104 109 0
-27 96 98 100 -101 -103 104 -106 -107 -108 -109 0
-27 95 98 100 101 -103 104 106 107 -108 -109 0
27 95 98 100 -101 -103 104 -106 -107 108 -109 0
27 -95 -96 -98 100 -101 -103 -104 106 -107 108 -109 0
-101 104 106 109 0
-27 -95 -96 -98 100 101 -103 -104 -106 107 -108 -109 0
27 96 98 100 -101 -103 104 -106 -107 108 -109 0
27 -95 -96 -98 100 101 -103 -104 -106 107 108 -109 0
98 -106 107 109 0
-27 96 -98 100 101 -103 104 106 -107 -108 -109 0
101 -104 106 109 0
27 95 98 100 101 -103 104 106 107 108 -109 0
-27 96 -98 100 -101 -103 104 -106 107 -108 -109 0
-101 -104 -106 109 0
-98 106 107 109 0
-98 -106 -107 109 0
101 104 -106 109 0
27 -108 109 0
27 96 -98 100 -101 -103 104 -106 107 108 -109 0
-27 96 98 100 101 -103 104 106 107 -108 -109 0
-27 108 109 0
98 106 -107 109 0
-27 -95 -96 98 100 -101 -103 -104 106 107 -108 -109 0
27 95 -98 100 -101 -103 104 -106 107 108 -109 0
-6 -13 110 -111 0
13 29 30 0
13 -29 -30 0
6 29 30 0
111 138 0
109 -111 -112 -113 -114 -115 -117 -119 -121 -123 124 -126 -129 -131 -133 -134 -135 -136 -137 -138 0
-3 -17 112 -113 0
17 31 32 0
17 -31 -32 0
3 31 32 0
113 138 0
109 -111 -113 -115 -116 -117 -118 -119 -121 -123 124 -126 -129 -131 -133 -134 -135 -136 -137 -138 0
-7 -34 114 -115 0
33 34 35 0
-33 34 -35 0
7 33 35 0
115 138 0
112 114 -116 -117 0
-112 -114 116 117 0
112 -114 116 -117 0
-112 114 -116 117 0
-112 114 116 -117 0
-112 -114 -116 -117 0
112 114 116 117 0
112 -114 -116 117 0
117 138 0
109 -111 -113 114 -115 116 -117 -119 -121 -123 124 -126 -129 -131 -133 -134 -135 -136 137 -138 0
99 101 -118 -119 0
-101 -104 -118 119 0
102 104 118 119 0
101 102 -118 -119 0
-99 -102 -118 119 0
102 104 -118 -119 0
99 101 118 119 0
99 104 118 119 0
-99 -102 118 -119 0
99 104 -118 -119 0
-101 -104 118 -119 0
101 102 118 119 0
119 138 0
109 -111 112 -113 -115 -117 118 -119 -121 -123 124 -126 -129 -131 -133 -134 -135 -136 137 -138 0
116 118 -120 -121 0
-116 -118 120 121 0
116 -118 120 -121 0
-116 118 -120 121 0
-116 118 120 -121 0
-116 -118 -120 -121 0
116 118 120 121 0
116 -118 -120 121 0
121 138 0
109 -111 -113 114 -115 -117 118 -119 -121 -123 124 -126 -129 -131 -133 -134 -135 -136 137 -138 0
110 120 -122 -123 0
-110 -120 122 123 0
110 -120 122 -123 0
-110 120 -122 123 0
-110 120 122 -123 0
-110 -120 -122 -123 0
110 120 122 123 0
110 -120 -122 123 0
123 138 0
-124 138 0
98 -125 -126 0
-98 -106 -125 126 0
-100 109 0
-98 -106 125 -126 0
106 125 126 0
106 -125 -126 0
98 125 126 0
126 138 0
122 -127 128 -129 0
-122 127 -128 129 0
122 127 -128 -129 0
-122 -127 128 129 0
-122 127 128 -129 0
-122 -127 -128 -129 0
122 127 128 129 0
122 -127 -128 129 0
129 138 0
108 127 -130 -131 0
-108 -127 130 131 0
108 -127 130 -131 0
-108 127 -130 131 0
-108 127 130 -131 0
-108 -127 -130 -131 0
108 127 130 131 0
108 -127 -130 131 0
131 138 0
-13 -17 132 -133 0
-6 -26 50 53 0
-3 13 26 28 -30 -32 -34 -35 -37 -39 -41 -43 -45 -47 -49 50 51 -52 -53 0
3 6 17 28 -30 -32 -35 -37 -39 -41 -43 -45 -47 -49 50 51 52 -53 0
133 138 0
-3 -34 134 -135 0
17 -132 -133 0
3 -52 53 0
17 132 133 0
135 138 0
109 -111 112 -113 -115 116 -117 -119 -121 -123 124 -126 -129 -131 -133 134 -135 136 137 -138 0
27 96 98 100 101 -103 104 106 107 108 -109 0
112 116 -137 138 0
109 -111 112 -113 -115 -117 118 -119 -121 -123 124 -126 -129 -131 -133 134 -135 136 137 -138 0
114 116 -137 138 0
-134 136 138 0
114 118 -137 138 0
109 -111 -113 114 -115 -117 118 -119 -121 -123 124 -126 -129 -131 -133 134 -135 136 137 -138 0
109 -111 -113 -115 -116 -117 -118 -119 -121 -123 124 -126 -129 -131 -133 134 -135 136 -137 -138 0
-116 -118 137 138 0
-112 -114 137 138 0
-109 138 0
96 -104 109 0
112 118 -137 138 0
136 137 -139 -140 0
-136 -137 139 140 0
136 -137 139 -140 0
-136 137 -139 140 0
-136 137 139 -140 0
-136 -137 -139 -140 0
136 137 139 140 0
136 -137 -139 140 0
140 169 0
-132 138 -139 -140 -142 -144 -146 -149 -151 -154 -156 -158 -160 -162 -163 -164 165 -166 -167 -168 -169 0
132 139 -141 -142 0
-132 -139 141 142 0
132 -139 141 -142 0
-132 139 -141 142 0
-132 139 141 -142 0
-132 -139 -141 -142 0
132 139 141 142 0
132 -139 -141 142 0
142 169 0
138 -140 -141 -142 -144 -146 -147 -149 -151 -154 -156 -158 -160 -162 -163 -164 165 -166 -167 -168 -169 0
-110 -143 144 0
110 143 144 0
110 -143 -144 0
-110 143 -144 0
144 169 0
132 138 -140 141 -142 -144 -146 -149 -151 -154 -156 -158 -160 -162 -163 -164 165 -166 -167 168 -169 0
-120 -145 146 0
120 145 146 0
120 -145 -146 0
-120 145 -146 0
146 169 0
138 139 -140 141 -142 -144 -146 -149 -151 -154 -156 -158 -160 -162 -163 -164 165 -166 -167 168 -169 0
134 -136 138 0
122 -147 148 -149 0
-122 -128 -147 149 0
122 147 148 149 0
128 147 148 149 0
-147 -148 149 0
128 -147 148 -149 0
-122 -128 147 -149 0
147 -148 -149 0
149 169 0
132 138 -140 -142 -144 -146 147 -149 -151 -154 -156 -158 -160 -162 -163 -164 165 -166 -167 168 -169 0
141 147 -150 -151 0
-141 -147 150 151 0
141 -147 150 -151 0
-141 147 -150 151 0
-141 147 150 -151 0
-141 -147 -150 -151 0
141 147 150 151 0
141 -147 -150 151 0
151 169 0
138 139 -140 -142 -144 -146 147 -149 -151 -154 -156 -158 -160 -162 -163 -164 165 -166 -167 168 -169 0
150 -152 153 -154 0
-150 152 -153 154 0
-150 152 153 -154 0
150 -152 -153 154 0
150 152 -153 -154 0
-150 -152 -153 -154 0
150 152 153 154 0
-150 -152 153 154 0
154 169 0
-152 -155 156 0
152 155 156 0
152 -155 -156 0
-152 155 -156 0
156 169 0
138 -140 -141 -142 -144 -146 -147 -149 -151 -154 -156 -158 -160 -162 163 -164 -165 -166 -167 -168 -169 0
108 157 -158 0
127 157 -158 0
-108 -127 -157 -158 0
108 -157 158 0
127 -157 158 0
-108 -127 157 158 0
158 169 0
132 138 -140 141 -142 -144 -146 -149 -151 -154 -156 -158 -160 -162 163 -164 -165 -166 -167 168 -169 0
-157 -159 160 0
157 159 160 0
157 -159 -160 0
-157 159 -160 0
160 169 0
138 139 -140 141 -142 -144 -146 -149 -151 -154 -156 -158 -160 -162 163 -164 -165 -166 -167 168 -169 0
-17 -26 161 -162 0
26 70 71 0
26 -70 -71 0
17 70 71 0
162 169 0
132 138 -140 -142 -144 -146 147 -149 -151 -154 -156 -158 -160 -162 163 -164 -165 -166 -167 168 -169 0
-13 -34 163 -164 0
34 72 73 0
34 -72 -73 0
13 72 73 0
164 169 0
138 139 -140 -142 -144 -146 147 -149 -151 -154 -156 -158 -160 -162 163 -164 -165 -166 -167 168 -169 0
136 -165 -166 0
-136 -137 -165 166 0
137 165 166 0
137 -165 -166 0
-136 -137 165 -166 0
134 136 165 166 0
166 169 0
138 139 -140 141 -142 -144 -146 -149 -151 -154 -156 -158 -160 -162 163 -164 165 -166 167 168 -169 0
132 138 -140 141 -142 -144 -146 -149 -151 -154 -156 -158 -160 -162 163 -164 165 -166 167 168 -169 0
138 -140 -141 -142 -144 -146 -147 -149 -151 -154 -156 -158 -160 -162 -163 -164 -165 -166 167 -168 -169 0
132 138 -140 -142 -144 -146 147 -149 -151 -154 -156 -158 -160 -162 -163 -164 -165 -166 167 168 -169 0
132 138 -140 141 -142 -144 -146 -149 -151 -154 -156 -158 -160 -162 -163 -164 -165 -166 167 168 -169 0
138 139 -140 -142 -144 -146 147 -149 -151 -154 -156 -158 -160 -162 -163 -164 -165 -166 167 168 -169 0
138 139 -140 141 -142 -144 -146 -149 -151 -154 -156 -158 -160 -162 -163 -164 -165 -166 167 168 -169 0
-132 138 -139 -140 -142 -144 -146 -149 -151 -154 -156 -158 -160 -162 163 -164 165 -166 167 -168 -169 0
132 138 -140 -142 -144 -146 147 -149 -151 -154 -156 -158 -160 -162 163 -164 165 -166 167 168 -169 0
138 139 -140 -142 -144 -146 147 -149 -151 -154 -156 -158 -160 -162 163 -164 165 -166 167 168 -169 0
138 -140 -141 -142 -144 -146 -147 -149 -151 -154 -156 -158 -160 -162 163 -164 165 -166 167 -168 -169 0
-138 169 0
-167 -168 170 171 0
-167 168 -170 171 0
167 168 170 171 0
167 -168 -170 171 0
-90 -92 169 -171 -173 -175 -177 178 -179 -181 182 -183 0
-161 -170 172 173 0
-161 170 -172 173 0
161 170 172 173 0
161 -170 -172 173 0
86 92 169 -171 -173 -175 -176 -177 -178 -179 -181 -183 0
-152 -157 -174 175 0
153 157 174 175 0
-150 -153 -174 175 0
150 152 174 175 0
150 157 174 175 0
152 153 174 175 0
88 92 169 -171 -173 -175 -176 -177 -178 -179 -181 -183 0
34 86 87 0
34 -86 -87 0
26 86 87 0
86 90 169 -171 -173 -175 -176 -177 -178 -179 -181 -183 0
-167 -168 -178 179 0
165 168 178 179 0
-163 -165 -178 179 0
163 168 178 179 0
165 167 178 179 0
88 90 169 -171 -173 -175 -176 -177 -178 -179 -181 -183 0
-176 -178 180 181 0
-176 178 -180 181 0
176 178 180 181 0
176 -178 -180 181 0
-172 -174 -182 183 0
170 174 182 183 0
-161 -170 -182 183 0
161 174 182 183 0
170 172 182 183 0
10 -105 169 -171 -173 -175 -177 -179 -181 -183 0
-10 105 169 -171 -173 -175 -177 -179 -181 -183 0
24 -107 169 -171 -173 -175 -177 -179 -181 -183 0
-24 107 169 -171 -173 -175 -177 -179 -181 -183 0
-48 130 169 -171 -173 -175 -177 -179 -181 -183 0
48 -130 169 -171 -173 -175 -177 -179 -181 -183 0
-82 84 169 -171 -172 -173 -174 -175 -177 -179 -181 -183 0
66 -68 169 -171 -173 -175 -177 -179 -181 -183 184 0
-66 68 169 -171 -173 -175 -177 -179 -181 -183 184 0
82 -84 169 -171 -172 -173 -174 -175 -177 -179 -181 -183 0
66 68 169 -171 -173 -175 -177 -179 -181 -183 -184 0
-82 84 169 -171 172 -173 174 -175 -177 -179 -181 -183 0
-66 -68 169 -171 -173 -175 -177 -179 -181 -183 -184 0
-90 92 169 -171 -173 -175 -177 -179 -180 -181 -182 -183 0
82 84 169 -171 -172 -173 174 -175 -177 -179 -181 -183 0
-82 -84 169 -171 -172 -173 174 -175 -177 -179 -181 -183 0
90 -92 169 -171 -173 -175 -177 -179 -180 -181 -182 -183 0
82 -84 169 -171 172 -173 174 -175 -177 -179 -181 -183 0
-90 92 169 -171 -173 -175 -177 -179 180 -181 182 -183 0
-82 -84 169 -171 172 -173 -174 -175 -177 -179 -181 -183 0
82 84 169 -171 172 -173 -174 -175 -177 -179 -181 -183 0
-86 -88 169 -171 -173 -175 -177 178 -179 -181 182 -183 0
-90 -92 169 -171 -173 -175 176 -177 -179 180 -181 -183 0
90 92 169 -171 -173 -175 -177 -179 180 -181 -182 -183 0
-90 -92 169 -171 -173 -175 -177 -179 -180 -181 182 -183 0
88 92 169 -171 -173 -175 -177 -179 -180 -181 -182 -183 0
86 90 169 -171 -173 -175 -177 -179 -180 -181 -182 -183 0
90 92 169 -171 -173 -175 -177 -179 -180 -181 182 -183 0
86 92 169 -171 -173 -175 -177 -179 -180 -181 -182 -183 0
-90 -92 169 -171 -173 -175 176 -177 -179 -181 182 -183 0
90 -92 169 -171 -173 -175 -177 -179 180 -181 182 -183 0
88 90 169 -171 -173 -175 -177 -179 -180 -181 -182 -183 0
-90 -92 169 -171 -173 -175 -177 -179 180 -181 -182 -183 0
-86 -88 169 -171 -173 -175 176 -177 -179 180 -181 -183 0
-86 -88 169 -171 -173 -175 176 -177 -179 -181 182 -183 0
